c Random generated cnf formula, satisfiable: false
p cnf 10 50
2 4 7 0
-7 -1 -9 0
6 7 10 0
-7 -3 10 0
-2 3 -9 0
7 10 5 0
-4 1 -9 0
-4 -8 -6 0
7 -1 -5 0
6 9 4 0
8 5 6 0
4 5 -1 0
-6 1 5 0
8 6 7 0
-7 -6 -8 0
10 -3 2 0
-1 -6 -5 0
2 -7 -10 0
4 -10 -9 0
3 2 -7 0
3 -5 1 0
-1 -8 3 0
-10 -7 1 0
3 4 8 0
8 -1 5 0
3 -10 -9 0
2 -9 7 0
-6 3 8 0
-6 5 1 0
8 9 -2 0
1 -4 -6 0
6 9 5 0
-2 -6 10 0
8 -6 9 0
-4 -5 -1 0
10 -4 9 0
-9 1 -3 0
-6 9 5 0
-8 9 -7 0
-4 9 -2 0
-8 -4 -5 0
7 -4 -8 0
5 2 -4 0
10 -5 8 0
-3 -7 -5 0
-4 -3 8 0
9 -1 -8 0
1 8 -6 0
-5 1 7 0
3 -2 5 0
